p cnf 95 315
2 3 -4 0
-2 -3 -4 0
2 -3 4 0
-2 3 4 0
7 -5 0
7 -6 0
5 6 -7 0
-8 -4 0
-8 -7 0
4 7 8 0
-9 1 0
-9 -8 0
-1 8 9 0
-9 1 -10 0
9 -1 -10 0
-9 -1 10 0
9 1 10 0
12 11 0
12 3 0
-11 -3 -12 0
14 -12 0
14 -13 0
12 13 -14 0
15 5 0
15 -14 0
-5 14 -15 0
-15 -13 -16 0
15 13 -16 0
-15 13 16 0
15 -13 16 0
-17 10 0
-17 -16 0
-10 16 17 0
-18 17 0
-18 6 0
-17 -6 18 0
-7 -3 -19 0
7 3 -19 0
-7 3 19 0
7 -3 19 0
-19 -6 -20 0
19 6 -20 0
-19 6 20 0
19 -6 20 0
-22 -21 0
-22 3 0
21 -3 22 0
-23 21 0
-23 -22 0
-21 22 23 0
23 -13 -24 0
-23 13 -24 0
23 13 24 0
-23 -13 24 0
27 1 0
27 26 0
-1 -26 -27 0
28 -25 0
28 27 0
25 -27 -28 0
-28 -19 -29 0
28 19 -29 0
-28 19 29 0
28 -19 29 0
-30 -24 0
-30 29 0
24 -29 30 0
31 20 0
31 -30 0
-20 30 -31 0
-32 25 -33 0
32 -25 -33 0
-32 -25 33 0
32 25 33 0
-34 -21 -35 0
34 21 -35 0
-34 21 35 0
34 -21 35 0
36 -33 0
36 -35 0
33 35 -36 0
-37 25 0
-37 36 0
-25 -36 37 0
38 34 0
38 -22 0
-34 22 -38 0
39 38 0
39 -21 0
-38 21 -39 0
40 39 0
40 -9 0
-39 9 -40 0
-41 -37 0
-41 -40 0
37 40 41 0
-42 -31 0
-42 -41 0
31 41 42 0
44 43 0
44 -3 0
-43 3 -44 0
45 42 0
45 -44 0
-42 44 -45 0
-43 12 -46 0
43 -12 -46 0
-43 -12 46 0
43 12 46 0
-47 -46 0
-47 -19 0
46 19 47 0
48 -47 0
48 10 0
47 -10 -48 0
49 36 0
49 15 0
-36 -15 -49 0
50 -48 0
50 49 0
48 -49 -50 0
-2 -6 -51 0
2 6 -51 0
-2 6 51 0
2 -6 51 0
52 12 0
52 -32 0
-12 32 -52 0
53 52 0
53 9 0
-52 -9 -53 0
54 51 0
54 -53 0
-51 53 -54 0
-55 -22 0
-55 27 0
22 -27 55 0
13 35 -56 0
-13 -35 -56 0
13 -35 56 0
-13 35 56 0
55 -56 -57 0
-55 56 -57 0
55 56 57 0
-55 -56 57 0
-13 -47 -58 0
13 47 -58 0
-13 47 58 0
13 -47 58 0
-59 58 0
-59 4 0
-58 -4 59 0
60 -57 0
60 59 0
57 -59 -60 0
-61 -54 0
-61 60 0
54 -60 61 0
50 -61 -62 0
-50 61 -62 0
50 61 62 0
-50 -61 62 0
-63 -45 0
-63 62 0
45 -62 63 0
64 -13 0
64 5 0
13 -5 -64 0
-65 64 0
-65 35 0
-64 -35 65 0
52 -65 -66 0
-52 65 -66 0
52 65 66 0
-52 -65 66 0
-67 55 0
-67 -6 0
-55 6 67 0
-68 -66 0
-68 -67 0
66 67 68 0
-69 5 0
-69 47 0
-5 -47 69 0
70 69 0
70 -43 0
-69 43 -70 0
71 -68 0
71 -70 0
68 70 -71 0
-72 19 0
-72 -55 0
-19 55 72 0
73 15 0
73 72 0
-15 -72 -73 0
74 -39 0
74 32 0
39 -32 -74 0
75 21 0
75 -32 0
-21 32 -75 0
-74 -75 -76 0
74 75 -76 0
-74 75 76 0
74 -75 76 0
77 -73 0
77 76 0
73 -76 -77 0
-19 -10 -78 0
19 10 -78 0
-19 10 78 0
19 -10 78 0
78 7 -79 0
-78 -7 -79 0
78 -7 79 0
-78 7 79 0
-80 -22 0
-80 14 0
22 -14 80 0
81 79 0
81 -80 0
-79 80 -81 0
83 82 0
83 8 0
-82 -8 -83 0
84 81 0
84 83 0
-81 -83 -84 0
85 -43 0
85 26 0
43 -26 -85 0
86 36 0
86 -85 0
-36 85 -86 0
-87 84 0
-87 -86 0
-84 86 87 0
88 -47 0
88 -75 0
47 75 -88 0
-89 32 0
-89 52 0
-32 -52 89 0
90 -88 0
90 -89 0
88 89 -90 0
-91 -87 0
-91 90 0
87 -90 91 0
-92 77 0
-92 -91 0
-77 91 92 0
-93 -71 0
-93 -92 0
71 92 93 0
94 63 0
94 93 0
-63 -93 -94 0
95 -18 0
95 -94 0
18 94 -95 0
-90 53 84 -75 87 0
-56 -62 -43 59 -85 -54 0
-81 -95 -27 -7 -9 0
-44 21 0
65 43 -16 -72 0
-66 -95 0
17 -81 91 -25 0
-27 -68 83 -77 0
-3 -7 -48 0
35 -92 -42 80 0
-54 79 44 0
62 57 0
33 -51 34 -30 81 -74 0
-23 72 -32 0
-62 -6 0
75 46 0
43 -34 -5 69 0
76 -23 83 -42 0
17 -68 45 0
-44 -25 93 -92 7 0
5 -83 0
-84 -28 0
-67 -68 15 74 76 0
83 -32 7 -70 79 0
-52 89 79 0
-23 -93 75 43 -36 84 0
34 -27 -17 35 62 36 0
-92 85 -86 78 -44 0
46 33 15 -41 89 50 0
-29 -54 -4 0
34 20 0
-38 59 -93 -79 0
11 92 -61 -63 -55 94 0
-25 -30 -78 -88 0
-49 -84 74 -82 36 -13 0
5 71 92 0
57 14 87 -78 0
-17 -2 89 75 13 0
35 32 -13 0
54 -50 -78 -81 43 0
84 -81 59 -65 91 0
-40 -88 0
22 78 -18 0
-12 82 0
41 73 29 0
60 89 29 -71 62 0
-91 -15 0
78 68 87 0
-68 54 84 66 0
-5 29 82 95 40 0
-68 -77 36 43 -28 0
45 -84 -74 -29 -72 11 0
95 0
